(declare-fun temp736_1 () (_ BitVec 64))
(declare-fun temp736_2 () (_ BitVec 64))
(declare-fun var76042 () (_ BitVec 64))
(declare-fun k!0 () Bool)
(declare-fun ARGNAME_input_NAMEEND_DIM () (_ BitVec 64))
(declare-fun ARGNAME_data_format_NAMEEND_STRFMT () (_ BitVec 64))
(declare-fun temp736_3 () (_ BitVec 64))
(declare-fun ARGNAME_out_backprop_NAMEEND_DIM () (_ BitVec 64))
(declare-fun var76103 () (_ BitVec 64))
(declare-fun temp736_4 () (_ BitVec 64))
(declare-fun temp736_5 () (_ BitVec 64))
(declare-fun ARGNAME_input_NAMEEND_DIMSIZE
             ()
             (Array (_ BitVec 64) (_ BitVec 64)))
(declare-fun temp736_6 () (_ BitVec 64))
(declare-fun temp736_7 () (_ BitVec 64))
(declare-fun temp736_8 () (_ BitVec 64))
(declare-fun temp736_9 () (_ BitVec 64))
(declare-fun temp736_10 () (_ BitVec 64))
(declare-fun temp736_11 () (_ BitVec 64))
(declare-fun temp736_12 () (_ BitVec 64))
(declare-fun temp736_13 () (_ BitVec 64))
(declare-fun temp736_14 () (_ BitVec 64))
(declare-fun temp736_15 () (_ BitVec 64))
(declare-fun temp736_16 () (_ BitVec 64))
(declare-fun temp736_17 () (_ BitVec 64))
(declare-fun temp736_18 () (_ BitVec 64))
(declare-fun var76131 () (_ BitVec 64))
(declare-fun temp736_19 () (_ BitVec 64))
(declare-fun ARGNAME_out_backprop_NAMEEND_DIMSIZE
             ()
             (Array (_ BitVec 64) (_ BitVec 64)))
(declare-fun temp736_20 () (_ BitVec 64))
(declare-fun temp736_21 () (_ BitVec 64))
(declare-fun temp736_22 () (_ BitVec 64))
(declare-fun temp736_23 () (_ BitVec 64))
(declare-fun temp736_24 () (_ BitVec 64))
(declare-fun temp736_25 () (_ BitVec 64))
(declare-fun temp736_26 () (_ BitVec 64))
(declare-fun temp736_27 () (_ BitVec 64))
(declare-fun temp736_28 () (_ BitVec 64))
(declare-fun temp736_29 () (_ BitVec 64))
(declare-fun temp736_30 () (_ BitVec 64))
(declare-fun temp736_31 () (_ BitVec 64))
(declare-fun temp736_32 () (_ BitVec 64))
(declare-fun var76165 () (_ BitVec 64))
(declare-fun temp736_33 () (_ BitVec 64))
(declare-fun ARGNAME_input_NAMEEND_NUMELEMENT () (_ BitVec 64))
(declare-fun var76268 () (_ BitVec 64))
(declare-fun temp736_34 () (_ BitVec 64))
(declare-fun temp736_35 () (_ BitVec 64))
(declare-fun var275510 () (_ BitVec 64))
(declare-fun temp736_36 () (_ BitVec 64))
(declare-fun var275528 () (_ BitVec 64))
(declare-fun temp736_37 () (_ BitVec 64))
(declare-fun temp736_38 () (_ BitVec 64))
(declare-fun var406582 () (_ BitVec 64))
(declare-fun temp736_39 () (_ BitVec 64))
(declare-fun var406600 () (_ BitVec 64))
(declare-fun temp736_40 () (_ BitVec 64))
(declare-fun temp736_41 () (_ BitVec 64))
(declare-fun var537654 () (_ BitVec 64))
(declare-fun temp736_42 () (_ BitVec 64))
(declare-fun var537672 () (_ BitVec 64))
(declare-fun temp736_43 () (_ BitVec 64))
(declare-fun temp736_45 () (_ BitVec 64))
(declare-fun temp736_44 () (_ BitVec 64))
(declare-fun temp736_47 () (_ BitVec 64))
(declare-fun temp736_46 () (_ BitVec 64))
(declare-fun temp736_49 () (_ BitVec 64))
(declare-fun temp736_48 () (_ BitVec 64))
(declare-fun temp736_51 () (_ BitVec 64))
(declare-fun temp736_50 () (_ BitVec 64))
(declare-fun temp736_53 () (_ BitVec 64))
(declare-fun temp736_52 () (_ BitVec 64))
(declare-fun temp736_55 () (_ BitVec 64))
(declare-fun temp736_54 () (_ BitVec 64))
(declare-fun temp736_57 () (_ BitVec 64))
(declare-fun temp736_56 () (_ BitVec 64))
(declare-fun temp736_59 () (_ BitVec 64))
(declare-fun temp736_58 () (_ BitVec 64))
(declare-fun temp736_60 () (_ BitVec 64))
(declare-fun var992306 () (_ BitVec 64))
(declare-fun temp736_61 () (_ BitVec 64))
(declare-fun var992307 () (_ BitVec 64))
(declare-fun var992308 () (_ BitVec 64))
(declare-fun var992304 () (_ BitVec 64))
(declare-fun var599004 () (_ BitVec 64))
(declare-fun temp736_62 () (_ BitVec 64))
(declare-fun var1057842 () (_ BitVec 64))
(declare-fun temp736_63 () (_ BitVec 64))
(declare-fun var1057843 () (_ BitVec 64))
(declare-fun var1057844 () (_ BitVec 64))
(declare-fun var1057840 () (_ BitVec 64))
(declare-fun var599011 () (_ BitVec 64))
(declare-fun temp736_64 () (_ BitVec 64))
(declare-fun var1123378 () (_ BitVec 64))
(declare-fun temp736_65 () (_ BitVec 64))
(declare-fun var1123379 () (_ BitVec 64))
(declare-fun var1123380 () (_ BitVec 64))
(declare-fun var1123376 () (_ BitVec 64))
(declare-fun var599016 () (_ BitVec 64))
(declare-fun var76450 () (_ BitVec 64))
(declare-fun temp736_66 () (_ BitVec 64))
(declare-fun temp736_67 () (_ BitVec 64))
(declare-fun var76511 () (_ BitVec 64))
(declare-fun var76512 () (_ BitVec 64))
(declare-fun temp736_69 () (_ BitVec 64))
(declare-fun temp736_68 () (_ BitVec 64))
(declare-fun temp736_71 () (_ BitVec 64))
(declare-fun temp736_70 () (_ BitVec 64))
(assert (or (= ARGNAME_data_format_NAMEEND_STRFMT #x0000000000000000)
    (= ARGNAME_data_format_NAMEEND_STRFMT #x0000000000000001)
    (= ARGNAME_data_format_NAMEEND_STRFMT #x0000000000000002)
    (= ARGNAME_data_format_NAMEEND_STRFMT #x0000000000000003)
    (= ARGNAME_data_format_NAMEEND_STRFMT #x0000000000000004)
    (= ARGNAME_data_format_NAMEEND_STRFMT #x0000000000000005)))
(assert (= temp736_1 #x0000000000000005))
(assert (= var76042
   (ite (= ARGNAME_input_NAMEEND_DIM temp736_1)
        #x0000000000000001
        #x0000000000000000)))
(assert (= temp736_2 #x0000000000000001))
(assert (= var76042 temp736_2))
(assert (= temp736_3 #x0000000000000005))
(assert (= var76103
   (ite (= ARGNAME_out_backprop_NAMEEND_DIM temp736_3)
        #x0000000000000001
        #x0000000000000000)))
(assert (= temp736_4 #x0000000000000001))
(assert (= var76103 temp736_4))
(assert (= temp736_5 #x0000000000000000))
(assert (= temp736_6 (select ARGNAME_input_NAMEEND_DIMSIZE temp736_5)))
(assert (= temp736_7 #x0000000000000001))
(assert (= temp736_8 (select ARGNAME_input_NAMEEND_DIMSIZE temp736_7)))
(assert (= temp736_9 #x0000000000000002))
(assert (= temp736_10 (select ARGNAME_input_NAMEEND_DIMSIZE temp736_9)))
(assert (= temp736_11 #x0000000000000003))
(assert (= temp736_12 (select ARGNAME_input_NAMEEND_DIMSIZE temp736_11)))
(assert (= temp736_13 #x0000000000000004))
(assert (= temp736_14 (select ARGNAME_input_NAMEEND_DIMSIZE temp736_13)))
(assert (= temp736_15 #x0000000000000005))
(assert (= temp736_16 (select ARGNAME_input_NAMEEND_DIMSIZE temp736_15)))
(assert (= temp736_17 #x0000000000000004))
(assert (= temp736_18 (select ARGNAME_input_NAMEEND_DIMSIZE temp736_17)))
(assert (= var76131 temp736_18))
(assert (= temp736_19 #x0000000000000000))
(assert (= temp736_20 (select ARGNAME_out_backprop_NAMEEND_DIMSIZE temp736_19)))
(assert (= temp736_21 #x0000000000000001))
(assert (= temp736_22 (select ARGNAME_out_backprop_NAMEEND_DIMSIZE temp736_21)))
(assert (= temp736_23 #x0000000000000002))
(assert (= temp736_24 (select ARGNAME_out_backprop_NAMEEND_DIMSIZE temp736_23)))
(assert (= temp736_25 #x0000000000000003))
(assert (= temp736_26 (select ARGNAME_out_backprop_NAMEEND_DIMSIZE temp736_25)))
(assert (= temp736_27 #x0000000000000004))
(assert (= temp736_28 (select ARGNAME_out_backprop_NAMEEND_DIMSIZE temp736_27)))
(assert (= temp736_29 #x0000000000000005))
(assert (= temp736_30 (select ARGNAME_out_backprop_NAMEEND_DIMSIZE temp736_29)))
(assert (= temp736_31 #x0000000000000004))
(assert (= temp736_32 (select ARGNAME_out_backprop_NAMEEND_DIMSIZE temp736_31)))
(assert (= var76165 temp736_32))
(assert (= temp736_33 #x0000000000000000))
(assert (= var76268
   (ite (= ARGNAME_input_NAMEEND_NUMELEMENT temp736_33)
        #x0000000000000001
        #x0000000000000000)))
(assert (= temp736_34 #x0000000000000000))
(assert (= var76268 temp736_34))
(assert (= temp736_35 #x0000000000000001))
(assert (= var275510 temp736_35))
(assert (= temp736_36 #x0000000000000001))
(assert (= var275528
   (ite (bvslt var275510 temp736_36) #x0000000000000001 #x0000000000000000)))
(assert (= temp736_37 #x0000000000000000))
(assert (= var275528 temp736_37))
(assert (= temp736_38 #x0000000000000001))
(assert (= var406582 temp736_38))
(assert (= temp736_39 #x0000000000000001))
(assert (= var406600
   (ite (bvslt var406582 temp736_39) #x0000000000000001 #x0000000000000000)))
(assert (= temp736_40 #x0000000000000000))
(assert (= var406600 temp736_40))
(assert (= temp736_41 #x0000000000000001))
(assert (= var537654 temp736_41))
(assert (= temp736_42 #x0000000000000001))
(assert (= var537672
   (ite (bvslt var537654 temp736_42) #x0000000000000001 #x0000000000000000)))
(assert (= temp736_43 #x0000000000000000))
(assert (= var537672 temp736_43))
(assert (= temp736_45 #x0000000000000000))
(assert (= temp736_44 temp736_45))
(assert (= temp736_47 #x0000000000000000))
(assert (= temp736_46 temp736_47))
(assert (= temp736_49 #x00000000000000ff))
(assert (= temp736_48 temp736_49))
(assert (= temp736_51 #x00000000000000ff))
(assert (= temp736_50 temp736_51))
(assert (= temp736_53 #x00000000000000ff))
(assert (= temp736_52 temp736_53))
(assert (= temp736_55 #x0000000000000000))
(assert (= temp736_54 temp736_55))
(assert (= temp736_57 #x0000000000000000))
(assert (= temp736_56 temp736_57))
(assert (= temp736_59 #x0000000000000000))
(assert (= temp736_58 temp736_59))
(assert (= temp736_60 #x0000000000008000))
(assert (= var992306 temp736_60))
(assert (= temp736_61 #x0000000000000001))
(assert (= var992307
   (ite (bvslt temp736_58 temp736_61) #x0000000000000001 #x0000000000000000)))
(assert (= var992308 (ite (= var992307 #x0000000000000001) var992306 temp736_58)))
(assert (= var992304 var992308))
(assert (= var599004 var992304))
(assert (= temp736_62 #x0000000000040000))
(assert (= var1057842 temp736_62))
(assert (= temp736_63 #x0000000000000001))
(assert (= var1057843
   (ite (bvslt temp736_56 temp736_63) #x0000000000000001 #x0000000000000000)))
(assert (= var1057844 (ite (= var1057843 #x0000000000000001) var1057842 temp736_56)))
(assert (= var1057840 var1057844))
(assert (= var599011 var1057840))
(assert (= temp736_64 #x0000000000200000))
(assert (= var1123378 temp736_64))
(assert (= temp736_65 #x0000000000000001))
(assert (= var1123379
   (ite (bvslt temp736_54 temp736_65) #x0000000000000001 #x0000000000000000)))
(assert (= var1123380 (ite (= var1123379 #x0000000000000001) var1123378 temp736_54)))
(assert (= var1123376 var1123380))
(assert (= var599016 var1123376))
(assert (= var76450 var599016))
(assert (= temp736_66 #x0000000000000003))
(assert (= temp736_67 #xffffffffffffffff))
(assert (= var76512 (bvadd var76511 temp736_67)))
(assert (= temp736_69 #x0000000000000000))
(assert (= temp736_68 temp736_69))
(assert (= temp736_71 #x0000000000000000))
(assert (= temp736_70 temp736_71))
(model-add temp736_1 () (_ BitVec 64) #x0000000000000005)
(model-add temp736_2 () (_ BitVec 64) #x0000000000000001)
(model-add var76042 () (_ BitVec 64) #x0000000000000001)
(model-del k!0)
(model-add ARGNAME_input_NAMEEND_DIM
           ()
           (_ BitVec 64)
           (ite k!0 #x0000000000000005 (bvnot #x0000000000000005)))



